6
Mode: 0, Frequency: -329.02 cm**-1, Amplitude: -0.00
C -1.328840 -1.572512 -0.012251
H -1.345602 -2.523660 0.477584
H -2.217766 -0.978721 -0.058313
H -0.423155 -1.215159 -0.456022
F -0.901026 -0.817147 1.469129
Cl -1.815325 -2.431478 -1.696818
6
Mode: 0, Frequency: -329.02 cm**-1, Amplitude: -0.10
C -1.350014 -1.610191 -0.085893
H -1.339435 -2.512078 0.498061
H -2.210663 -0.968797 -0.037222
H -0.417956 -1.204980 -0.434508
F -0.894060 -0.804722 1.493383
Cl -1.812410 -2.426272 -1.686659
6
Mode: 0, Frequency: -329.02 cm**-1, Amplitude: -0.20
C -1.371188 -1.647871 -0.159536
H -1.333269 -2.500497 0.518539
H -2.203560 -0.958873 -0.016131
H -0.412756 -1.194801 -0.412994
F -0.887094 -0.792297 1.517637
Cl -1.809494 -2.421065 -1.676501
6
Mode: 0, Frequency: -329.02 cm**-1, Amplitude: -0.30
C -1.392362 -1.685550 -0.233178
H -1.327102 -2.488915 0.539016
H -2.196457 -0.948950 0.004960
H -0.407557 -1.184622 -0.391480
F -0.880128 -0.779873 1.541891
Cl -1.806579 -2.415859 -1.666342
6
Mode: 0, Frequency: -329.02 cm**-1, Amplitude: -0.40
C -1.413536 -1.723230 -0.306821
H -1.320935 -2.477334 0.559494
H -2.189354 -0.939026 0.026051
H -0.402357 -1.174443 -0.369966
F -0.873162 -0.767448 1.566145
Cl -1.803663 -2.410652 -1.656184
6
Mode: 0, Frequency: -329.02 cm**-1, Amplitude: -0.50
C -1.434710 -1.760909 -0.380463
H -1.314769 -2.465752 0.579971
H -2.182252 -0.929102 0.047142
H -0.397158 -1.164264 -0.348452
F -0.866196 -0.755023 1.590399
Cl -1.800748 -2.405446 -1.646025
6
Mode: 0, Frequency: -329.02 cm**-1, Amplitude: -0.60
C -1.455885 -1.798588 -0.454105
H -1.308602 -2.454170 0.600448
H -2.175149 -0.919178 0.068234
H -0.391959 -1.154084 -0.326938
F -0.859229 -0.742598 1.614654
Cl -1.797832 -2.400240 -1.635866
6
Mode: 0, Frequency: -329.02 cm**-1, Amplitude: -0.70
C -1.477059 -1.836268 -0.527748
H -1.302435 -2.442589 0.620926
H -2.168046 -0.909254 0.089325
H -0.386759 -1.143905 -0.305424
F -0.852263 -0.730173 1.638908
Cl -1.794917 -2.395033 -1.625708
6
Mode: 0, Frequency: -329.02 cm**-1, Amplitude: -0.80
C -1.498233 -1.873947 -0.601390
H -1.296268 -2.431007 0.641403
H -2.160943 -0.899331 0.110416
H -0.381560 -1.133726 -0.283910
F -0.845297 -0.717749 1.663162
Cl -1.792001 -2.389827 -1.615549
6
Mode: 0, Frequency: -329.02 cm**-1, Amplitude: -0.90
C -1.519407 -1.911627 -0.675033
H -1.290102 -2.419426 0.661881
H -2.153840 -0.889407 0.131507
H -0.376360 -1.123547 -0.262396
F -0.838331 -0.705324 1.687416
Cl -1.789086 -2.384620 -1.605391
6
Mode: 0, Frequency: -329.02 cm**-1, Amplitude: -1.00
C -1.540581 -1.949306 -0.748675
H -1.283935 -2.407844 0.682358
H -2.146737 -0.879483 0.152598
H -0.371161 -1.113368 -0.240882
F -0.831365 -0.692899 1.711670
Cl -1.786170 -2.379414 -1.595232
6
Mode: 0, Frequency: -329.02 cm**-1, Amplitude: -0.90
C -1.519407 -1.911627 -0.675033
H -1.290102 -2.419426 0.661881
H -2.153840 -0.889407 0.131507
H -0.376360 -1.123547 -0.262396
F -0.838331 -0.705324 1.687416
Cl -1.789086 -2.384620 -1.605391
6
Mode: 0, Frequency: -329.02 cm**-1, Amplitude: -0.80
C -1.498233 -1.873947 -0.601390
H -1.296268 -2.431007 0.641403
H -2.160943 -0.899331 0.110416
H -0.381560 -1.133726 -0.283910
F -0.845297 -0.717749 1.663162
Cl -1.792001 -2.389827 -1.615549
6
Mode: 0, Frequency: -329.02 cm**-1, Amplitude: -0.70
C -1.477059 -1.836268 -0.527748
H -1.302435 -2.442589 0.620926
H -2.168046 -0.909254 0.089325
H -0.386759 -1.143905 -0.305424
F -0.852263 -0.730173 1.638908
Cl -1.794917 -2.395033 -1.625708
6
Mode: 0, Frequency: -329.02 cm**-1, Amplitude: -0.60
C -1.455885 -1.798588 -0.454105
H -1.308602 -2.454170 0.600448
H -2.175149 -0.919178 0.068234
H -0.391959 -1.154084 -0.326938
F -0.859229 -0.742598 1.614654
Cl -1.797832 -2.400240 -1.635866
6
Mode: 0, Frequency: -329.02 cm**-1, Amplitude: -0.50
C -1.434710 -1.760909 -0.380463
H -1.314769 -2.465752 0.579971
H -2.182252 -0.929102 0.047142
H -0.397158 -1.164264 -0.348452
F -0.866196 -0.755023 1.590399
Cl -1.800748 -2.405446 -1.646025
6
Mode: 0, Frequency: -329.02 cm**-1, Amplitude: -0.40
C -1.413536 -1.723230 -0.306821
H -1.320935 -2.477334 0.559494
H -2.189354 -0.939026 0.026051
H -0.402357 -1.174443 -0.369966
F -0.873162 -0.767448 1.566145
Cl -1.803663 -2.410652 -1.656184
6
Mode: 0, Frequency: -329.02 cm**-1, Amplitude: -0.30
C -1.392362 -1.685550 -0.233178
H -1.327102 -2.488915 0.539016
H -2.196457 -0.948950 0.004960
H -0.407557 -1.184622 -0.391480
F -0.880128 -0.779873 1.541891
Cl -1.806579 -2.415859 -1.666342
6
Mode: 0, Frequency: -329.02 cm**-1, Amplitude: -0.20
C -1.371188 -1.647871 -0.159536
H -1.333269 -2.500497 0.518539
H -2.203560 -0.958873 -0.016131
H -0.412756 -1.194801 -0.412994
F -0.887094 -0.792297 1.517637
Cl -1.809494 -2.421065 -1.676501
6
Mode: 0, Frequency: -329.02 cm**-1, Amplitude: -0.10
C -1.350014 -1.610191 -0.085893
H -1.339435 -2.512078 0.498061
H -2.210663 -0.968797 -0.037222
H -0.417956 -1.204980 -0.434508
F -0.894060 -0.804722 1.493383
Cl -1.812410 -2.426272 -1.686659
6
Mode: 0, Frequency: -329.02 cm**-1, Amplitude: 0.00
C -1.328840 -1.572512 -0.012251
H -1.345602 -2.523660 0.477584
H -2.217766 -0.978721 -0.058313
H -0.423155 -1.215159 -0.456022
F -0.901026 -0.817147 1.469129
Cl -1.815325 -2.431478 -1.696818
6
Mode: 0, Frequency: -329.02 cm**-1, Amplitude: 0.10
C -1.307666 -1.534833 0.061391
H -1.351769 -2.535242 0.457107
H -2.224869 -0.988645 -0.079404
H -0.428354 -1.225338 -0.477536
F -0.907992 -0.829572 1.444875
Cl -1.818241 -2.436684 -1.706977
6
Mode: 0, Frequency: -329.02 cm**-1, Amplitude: 0.20
C -1.286492 -1.497153 0.135034
H -1.357935 -2.546823 0.436629
H -2.231972 -0.998569 -0.100495
H -0.433554 -1.235517 -0.499050
F -0.914958 -0.841997 1.420621
Cl -1.821156 -2.441891 -1.717135
6
Mode: 0, Frequency: -329.02 cm**-1, Amplitude: 0.30
C -1.265318 -1.459474 0.208676
H -1.364102 -2.558405 0.416152
H -2.239075 -1.008492 -0.121586
H -0.438753 -1.245696 -0.520564
F -0.921924 -0.854421 1.396367
Cl -1.824072 -2.447097 -1.727294
6
Mode: 0, Frequency: -329.02 cm**-1, Amplitude: 0.40
C -1.244144 -1.421794 0.282319
H -1.370269 -2.569986 0.395674
H -2.246178 -1.018416 -0.142677
H -0.443953 -1.255875 -0.542078
F -0.928890 -0.866846 1.372113
Cl -1.826987 -2.452304 -1.737452
6
Mode: 0, Frequency: -329.02 cm**-1, Amplitude: 0.50
C -1.222970 -1.384115 0.355961
H -1.376435 -2.581568 0.375197
H -2.253281 -1.028340 -0.163768
H -0.449152 -1.266055 -0.563592
F -0.935856 -0.879271 1.347858
Cl -1.829902 -2.457510 -1.747611
6
Mode: 0, Frequency: -329.02 cm**-1, Amplitude: 0.60
C -1.201795 -1.346436 0.429603
H -1.382602 -2.593150 0.354720
H -2.260383 -1.038264 -0.184860
H -0.454351 -1.276234 -0.585106
F -0.942823 -0.891696 1.323604
Cl -1.832818 -2.462716 -1.757770
6
Mode: 0, Frequency: -329.02 cm**-1, Amplitude: 0.70
C -1.180621 -1.308756 0.503246
H -1.388769 -2.604731 0.334242
H -2.267486 -1.048188 -0.205951
H -0.459551 -1.286413 -0.606620
F -0.949789 -0.904121 1.299350
Cl -1.835734 -2.467923 -1.767928
6
Mode: 0, Frequency: -329.02 cm**-1, Amplitude: 0.80
C -1.159447 -1.271077 0.576888
H -1.394936 -2.616313 0.313765
H -2.274589 -1.058111 -0.227042
H -0.464750 -1.296592 -0.628134
F -0.956755 -0.916545 1.275096
Cl -1.838649 -2.473129 -1.778087
6
Mode: 0, Frequency: -329.02 cm**-1, Amplitude: 0.90
C -1.138273 -1.233397 0.650531
H -1.401102 -2.627894 0.293287
H -2.281692 -1.068035 -0.248133
H -0.469950 -1.306771 -0.649648
F -0.963721 -0.928970 1.250842
Cl -1.841565 -2.478336 -1.788245
6
Mode: 0, Frequency: -329.02 cm**-1, Amplitude: 1.00
C -1.117099 -1.195718 0.724173
H -1.407269 -2.639476 0.272810
H -2.288795 -1.077959 -0.269224
H -0.475149 -1.316950 -0.671162
F -0.970687 -0.941395 1.226588
Cl -1.844480 -2.483542 -1.798404
6
Mode: 0, Frequency: -329.02 cm**-1, Amplitude: 0.90
C -1.138273 -1.233397 0.650531
H -1.401102 -2.627894 0.293287
H -2.281692 -1.068035 -0.248133
H -0.469950 -1.306771 -0.649648
F -0.963721 -0.928970 1.250842
Cl -1.841565 -2.478336 -1.788245
6
Mode: 0, Frequency: -329.02 cm**-1, Amplitude: 0.80
C -1.159447 -1.271077 0.576888
H -1.394936 -2.616313 0.313765
H -2.274589 -1.058111 -0.227042
H -0.464750 -1.296592 -0.628134
F -0.956755 -0.916545 1.275096
Cl -1.838649 -2.473129 -1.778087
6
Mode: 0, Frequency: -329.02 cm**-1, Amplitude: 0.70
C -1.180621 -1.308756 0.503246
H -1.388769 -2.604731 0.334242
H -2.267486 -1.048188 -0.205951
H -0.459551 -1.286413 -0.606620
F -0.949789 -0.904121 1.299350
Cl -1.835734 -2.467923 -1.767928
6
Mode: 0, Frequency: -329.02 cm**-1, Amplitude: 0.60
C -1.201795 -1.346436 0.429603
H -1.382602 -2.593150 0.354720
H -2.260383 -1.038264 -0.184860
H -0.454351 -1.276234 -0.585106
F -0.942823 -0.891696 1.323604
Cl -1.832818 -2.462716 -1.757770
6
Mode: 0, Frequency: -329.02 cm**-1, Amplitude: 0.50
C -1.222970 -1.384115 0.355961
H -1.376435 -2.581568 0.375197
H -2.253281 -1.028340 -0.163768
H -0.449152 -1.266055 -0.563592
F -0.935856 -0.879271 1.347858
Cl -1.829902 -2.457510 -1.747611
6
Mode: 0, Frequency: -329.02 cm**-1, Amplitude: 0.40
C -1.244144 -1.421794 0.282319
H -1.370269 -2.569986 0.395674
H -2.246178 -1.018416 -0.142677
H -0.443953 -1.255875 -0.542078
F -0.928890 -0.866846 1.372113
Cl -1.826987 -2.452304 -1.737452
6
Mode: 0, Frequency: -329.02 cm**-1, Amplitude: 0.30
C -1.265318 -1.459474 0.208676
H -1.364102 -2.558405 0.416152
H -2.239075 -1.008492 -0.121586
H -0.438753 -1.245696 -0.520564
F -0.921924 -0.854421 1.396367
Cl -1.824072 -2.447097 -1.727294
6
Mode: 0, Frequency: -329.02 cm**-1, Amplitude: 0.20
C -1.286492 -1.497153 0.135034
H -1.357935 -2.546823 0.436629
H -2.231972 -0.998569 -0.100495
H -0.433554 -1.235517 -0.499050
F -0.914958 -0.841997 1.420621
Cl -1.821156 -2.441891 -1.717135
6
Mode: 0, Frequency: -329.02 cm**-1, Amplitude: 0.10
C -1.307666 -1.534833 0.061391
H -1.351769 -2.535242 0.457107
H -2.224869 -0.988645 -0.079404
H -0.428354 -1.225338 -0.477536
F -0.907992 -0.829572 1.444875
Cl -1.818241 -2.436684 -1.706977
